CPXPARAM_Read_DataCheck                          1
Found incumbent of value 0.000000 after 0.00 sec. (0.08 ticks)
Tried aggregator 1 time.
MIP Presolve modified 1 coefficients.
Reduced MIP has 249 rows, 3015 columns, and 15051 nonzeros.
Reduced MIP has 3015 binaries, 0 generals, 0 SOSs, and 0 indicators.
Presolve time = 0.00 sec. (5.68 ticks)
Tried aggregator 1 time.
Reduced MIP has 249 rows, 3015 columns, and 15051 nonzeros.
Reduced MIP has 3015 binaries, 0 generals, 0 SOSs, and 0 indicators.
Presolve time = 0.02 sec. (6.76 ticks)
Probing time = 0.02 sec. (3.46 ticks)
Clique table members: 10129.
MIP emphasis: balance optimality and feasibility.
MIP search method: dynamic search.
Parallel mode: deterministic, using up to 4 threads.
Root relaxation solution time = 0.02 sec. (13.23 ticks)

        Nodes                                         Cuts/
   Node  Left     Objective  IInf  Best Integer    Best Bound    ItCnt     Gap

*     0+    0                            0.0000    18526.0000              --- 
      0     0     4750.4500    19        0.0000     4750.4500      442     --- 
*     0+    0                          883.0000     4750.4500           437.99%
*     0+    0                         3150.0000     4750.4500            50.81%
      0     0     3975.9188   232     3150.0000     Cuts: 162      981   26.22%
*     0+    0                         3358.0000     3975.9188            18.40%
      0     0     3665.5055   327     3358.0000     Cuts: 162     1381    9.16%
      0     0     3550.4875   417     3358.0000     Cuts: 162     1748    5.73%
      0     0     3479.5434   439     3358.0000     Cuts: 162     2123    3.62%
      0     0     3445.5653   483     3358.0000     Cuts: 162     2506    2.61%
*     0+    0                         3410.0000     3445.5653             1.04%
      0     0     3436.3360   493     3410.0000     Cuts: 156     2730    0.77%
*     0+    0                         3414.0000     3436.3360             0.65%
      0     0     3433.4438   447     3414.0000      Cuts: 84     2816    0.57%
      0     0     3432.5080   217     3414.0000      Cuts: 35     2874    0.54%
      0     0     3430.6168   531     3414.0000      Cuts: 23     2947    0.49%
      0     0     3428.9806   350     3414.0000      Cuts: 28     2966    0.44%
      0     0     3427.4737   436     3414.0000       Cuts: 4     2996    0.39%
      0     0     3419.3199   428     3414.0000      Cuts: 22     3108    0.16%

Repeating presolve.
Tried aggregator 1 time.
MIP Presolve eliminated 2 rows and 1518 columns.
MIP Presolve modified 13 coefficients.
Reduced MIP has 247 rows, 1497 columns, and 7283 nonzeros.
Reduced MIP has 1497 binaries, 0 generals, 0 SOSs, and 0 indicators.
Presolve time = 0.00 sec. (3.52 ticks)
Probing time = 0.00 sec. (2.60 ticks)
Tried aggregator 1 time.
Reduced MIP has 247 rows, 1497 columns, and 7283 nonzeros.
Reduced MIP has 1497 binaries, 0 generals, 0 SOSs, and 0 indicators.
Presolve time = 0.00 sec. (3.31 ticks)
Represolve time = 0.03 sec. (19.39 ticks)
Probing time = 0.00 sec. (2.60 ticks)
Clique table members: 5060.
MIP emphasis: balance optimality and feasibility.
MIP search method: dynamic search.
Parallel mode: deterministic, using up to 4 threads.
Root relaxation solution time = 0.05 sec. (52.66 ticks)

        Nodes                                         Cuts/
   Node  Left     Objective  IInf  Best Integer    Best Bound    ItCnt     Gap

*     0+    0                         3414.0000     3419.3199             0.16%
      0     0     3419.1520   422     3414.0000     3419.1520     4251    0.15%
*     0+    0                         3415.0000     3419.1520             0.12%
      0     0     3418.0754    91     3415.0000      Cuts: 39     4305    0.09%
      0     0     3417.5589   107     3415.0000      Cuts: 13     4356    0.07%
      0     0        cutoff           3415.0000     3415.0000     4356    0.00%
Elapsed time = 2.25 sec. (1158.06 ticks, tree = 0.01 MB, solutions = 7)

Clique cuts applied:  364
Cover cuts applied:  29
Implied bound cuts applied:  22
Flow cuts applied:  7
Mixed integer rounding cuts applied:  40
Zero-half cuts applied:  10

Root node processing (before b&c):
  Real time             =    2.25 sec. (1158.33 ticks)
Parallel b&c, 4 threads:
  Real time             =    0.00 sec. (0.00 ticks)
  Sync time (average)   =    0.00 sec.
  Wait time (average)   =    0.00 sec.
                          ------------
Total (root+branch&cut) =    2.25 sec. (1158.33 ticks)
